StudentsNr = 15;
InstructorsNr = 10;
DaysNr = 2;
SlotsPerDay = 15;
AvailabilitySlotsLenght = 3;
RoomNr = 2;
ProgrammNr = 1;
DegreeNr = 2;
RolesNr = 2;
CoursesNr = 4;
InstructorsProgramm = [{1}, {1}, {1}, {1}, {1}, {1}, {1}, {1}, {1}, {1}];
InstructorRolesPerProgramm = [|{1, 3, 5, 6, 8, 9}, {3, 9}|];
InstructorsAvailability = [|0, 1, 0, 1, 0, 0, 1, 1, 0, 1, |1, 1, 1, 1, 1, 1, 0, 0, 0, 1, |0, 1, 0, 0, 1, 1, 1, 1, 1, 1, |0, 0, 1, 1, 1, 1, 1, 0, 1, 1, |1, 0, 1, 1, 0, 1, 0, 1, 0, 1, |0, 1, 1, 1, 1, 1, 1, 1, 0, 1, |1, 0, 1, 0, 1, 0, 1, 1, 1, 1, |0, 0, 0, 1, 1, 1, 1, 1, 0, 0, |1, 1, 1, 1, 1, 0, 1, 1, 1, 1, |0, 0, 1, 1, 1, 1, 1, 1, 1, 0|];
StudentsProgramm = [1, 1, 1, 1, 1, 1, 1, 1, 1, 1, 1, 1, 1, 1, 1];
StudentsDegree = [2, 2, 2, 1, 2, 2, 2, 2, 2, 2, 1, 1, 1, 2, 2];
StudentsSupervisorId = [2, 3, 4, 8, 9, 10, 6, 4, 4, 4, 1, 7, 5, 1, 8];
StudentsCourseIds = [{1, 2}, {2, 4}, {1, 2}, {1, 3, 4}, {2, 4}, {3, 4}, {1, 3}, {1, 2}, {2, 3}, {1, 4}, {1, 3, 4}, {1, 3, 4}, {1, 2, 4}, {1, 3}, {1, 4}];
StudentsAvailability = [|1, 1, 1, 0, 0, 0, 1, 1, 1, 1, |1, 1, 1, 1, 1, 1, 1, 1, 1, 1, |0, 1, 1, 1, 1, 1, 1, 1, 1, 1, |1, 1, 0, 0, 0, 0, 0, 1, 1, 0, |1, 1, 1, 1, 1, 1, 1, 1, 1, 1, |1, 1, 1, 1, 1, 1, 1, 1, 1, 1, |0, 1, 1, 0, 1, 0, 0, 1, 0, 0, |0, 0, 0, 0, 0, 1, 1, 1, 1, 1, |1, 1, 1, 1, 0, 0, 1, 0, 0, 1, |0, 0, 0, 1, 1, 1, 1, 1, 1, 1, |0, 0, 1, 0, 1, 1, 1, 1, 1, 1, |1, 1, 0, 0, 1, 1, 1, 1, 1, 0, |1, 1, 1, 1, 0, 1, 1, 1, 1, 1, |1, 1, 1, 1, 1, 1, 1, 1, 1, 1, |1, 1, 1, 1, 1, 1, 1, 1, 0, 0|];
TheoryticalMinCard = [0, 0, 1, 0, 0, 0, 0, 1, 1, 1, 0, 1, 0, 0, 0];
CoursesInstructorIds = [{3, 5, 8}, {1, 2, 6, 7, 9, 10}, {2, 5, 6}, {2, 3, 5, 6, 8, 9, 10}];
RolesDemands = [2, 0];
RolesContinuity = [];
ExamLen = [2, 2, 2, 2, 2, 2, 2, 2, 2, 2, 2, 2, 2, 2, 2];
LunchTsMinLen = 1;
LunchStarts = [7..8, 22..23];
SupervisorAvailable = 5;
OptimalLunchLenght = [2, 1];
OptimalStartTs = [1, 2];
OptimalFinishTs = [1, 14];
MinimizeRooms = 500;
RolesSoftContinuity = [|1, 2|2, 1|];
SameDegreeInRoom = 0;
Mergeability = 0;
